100
50
1 3
2 7
3 2
4 1
5 2
6 3
7 1
8 4
9 5
10 5
11 10
12 4
13 7
14 3
15 4
16 7
17 2
18 2
19 7
20 5
21 1
22 10
23 2
24 7
25 6
26 8
27 8
28 10
29 5
30 4
31 6
32 8
33 10
34 10
35 10
36 2
37 4
38 10
39 7
40 8
41 4
42 8
43 2
44 2
45 1
46 7
47 8
48 2
49 8
50 6
